c description: Random 3-CNF over 6 variables and 18 clauses
p cnf 6 18
-1 4 -6 0
-2 3 -4 0
-1 -5 -6 0
-1 3 -4 0
-1 3 -5 0
1 -3 -4 0
-2 -3 5 0
-1 5 -6 0
1 -5 6 0
-1 -3 -6 0
-1 3 -6 0
2 -3 5 0
-3 -4 -6 0
-2 3 -6 0
-1 -3 6 0
-1 -2 3 0
1 -4 5 0
1 2 3 0